HUN,8,6,160
2,19,1,18,0,24,5,3,4,4,3,11
1,27,2,29,0,1,4,11,5,2,3,8
2,15,0,16,1,11,5,15,3,7,4,8
1,11,2,17,0,10,3,12,5,5,4,17
0,26,2,22,1,10,4,22,3,7,5,25
1,17,2,12,0,25,3,2,5,23,4,17
1,20,2,13,0,1,3,25,5,27,4,13
2,12,1,16,0,19,4,14,3,6,5,11
